# Solution for model ComputeNE_MIP
# Objective value = 7
sigma_0_0 0
sigma_0_1 0
sigma_0_2 5.5511151231257827e-17
sigma_0_3 1
sigma_1_0 0
sigma_1_1 1
sigma_2_0 0
sigma_2_1 1
sigma_3_0 0
sigma_3_1 1
sigma_4_0 0
sigma_4_1 1
sigma_5_0 0
sigma_5_1 1
sigma_6_0 0
sigma_6_1 0
sigma_6_2 1
activ_0_0 0
activ_0_1 0
activ_0_2 0
activ_0_3 1
activ_1_0 0
activ_1_1 1
activ_2_0 0
activ_2_1 1
activ_3_0 0
activ_3_1 1
activ_4_0 0
activ_4_1 1
activ_5_0 0
activ_5_1 1
activ_6_0 0
activ_6_1 0
activ_6_2 1
v_0 4.9918994019898145e+02
v_1 -5.8254654660003624e+01
v_2 -9.0531370247231280e+01
v_3 -82.6685988484463
v_4 -7.0479824185490912e+01
v_5 -7.6021874337164121e+01
v_6 2.1611557792421913e+03
ArtP_R0 0
ArtN_R0 0
ArtN_R1 0
ArtP_R2 0
ArtN_R2 0
ArtN_R3 0
ArtP_R4 0
ArtN_R4 0
ArtN_R5 0
ArtP_R6 0
ArtN_R6 0
ArtN_R7 0
ArtP_R8 0
ArtN_R8 0
ArtN_R9 0
ArtP_R10 0
ArtN_R10 0
ArtN_R11 0
ArtP_R12 0
ArtN_R12 0
ArtN_R13 0
ArtN_R14 0
ArtN_R15 0
ArtN_R16 0
ArtN_R17 0
ArtN_R18 0
ArtN_R19 0
ArtN_R20 0
ArtN_R21 0
ArtN_R22 0
ArtN_R23 0
ArtN_R24 0
ArtN_R25 0
ArtN_R26 0
ArtN_R27 0
ArtN_R28 0
ArtN_R29 0
ArtN_R30 0
ArtN_R31 0
ArtN_R32 0
ArtN_R33 0
ArtN_R34 0
ArtN_R35 0
ArtN_R36 0
ArtN_R37 0
ArtN_R38 0
ArtN_R39 0
ArtN_R40 0
ArtN_R41 0
ArtN_R42 0
ArtN_R43 0
ArtN_R44 0
ArtN_R45 0
ArtN_R46 0
ArtN_R47 0
